(set-option :produce-models true)
(set-logic QF_UF)
(declare-fun p6() Bool)
(declare-fun p10() Bool)
(declare-fun p12() Bool)
(declare-fun p0() Bool)
(declare-fun p4() Bool)
(declare-fun p15() Bool)
(declare-fun p2() Bool)
(declare-fun p19() Bool)
(declare-fun p16() Bool)
(declare-fun p11() Bool)
(declare-fun p9() Bool)
(declare-fun p8() Bool)
(declare-fun p14() Bool)
(declare-fun p5() Bool)
(declare-fun p17() Bool)
(declare-fun p13() Bool)
(declare-fun p1() Bool)
(declare-fun p7() Bool)
(declare-fun p3() Bool)
(declare-fun p18() Bool)
(assert
(and (or p6 (not p10) p12) (or p0 p4 (not p6)) (or p15 p0 (not p6)) (or p2 p19 p16) (or p11 p9 (not p8)) (or p16 (not p14) (not p19)) (or p5 p11 (not p17)) (or p6 (not p12) (not p10)) (or p15 (not p13) p14) (or p14 p4 p13) (or (not p5) (not p1) p4) (or p8 p0 p7) (or (not p7) (not p8) p12) (or (not p16) (not p14) (not p0)) (or p5 p19 (not p10)) (or p1 (not p6) (not p14)) (or (not p5) (not p0) (not p3)) (or p7 p15 (not p19)) (or (not p18) (not p4) (not p3)) (or (not p7) p19 (not p2)) (or p13 (not p13) p16) (or p6 (not p1) (not p11)) (or (not p14) (not p2) p10) (or p5 (not p9) (not p2)) (or p8 (not p19) (not p5)) (or p18 (not p2) (not p9)) (or (not p0) p5 (not p1)) (or (not p14) (not p9) (not p8)) (or (not p6) (not p11) (not p10)) (or (not p17) p17 p11) (or (not p4) p5 (not p18)) (or (not p15) p4 (not p15)) (or p19 (not p15) p4) (or p15 (not p9) (not p8)) (or p5 p3 p2) (or p7 p15 (not p5)) (or p14 (not p6) p3) (or p19 (not p4) p12) (or p10 (not p4) p3) (or (not p13) (not p2) p11) (or (not p18) p11 p13) (or p14 p19 (not p4)) (or (not p5) p14 (not p9)) (or (not p14) (not p12) p12) (or (not p19) p10 p2) (or (not p15) p12 p18) (or (not p3) (not p2) (not p6)) (or (not p16) p9 p5) (or p14 p15 (not p0)) (or p15 (not p0) p18) (or p5 p0 p19) (or p18 (not p17) (not p16)) (or p10 p11 (not p1)) (or p2 p2 p18) (or p11 (not p2) (not p10)) (or p13 (not p12) p15) (or p18 (not p5) (not p19)) (or p8 p19 (not p12)) (or (not p15) (not p18) (not p8)) (or (not p12) (not p11) (not p16)) (or p7 p15 p14) (or p18 p19 (not p1)) (or p5 p2 (not p1)) (or p13 (not p11) p7) (or (not p7) (not p15) (not p15)) (or (not p6) p10 (not p8)) (or p11 (not p10) (not p12)) (or p8 (not p9) (not p8)) (or p4 (not p0) p1) (or p7 p7 (not p16)) (or p6 (not p10) p5) (or (not p13) (not p2) (not p7)) (or p19 (not p6) (not p5)) (or (not p16) (not p13) p0) (or (not p3) (not p7) p2) (or (not p2) (not p4) p2) (or p17 p13 (not p3)) (or p1 (not p9) (not p3)) (or (not p3) (not p1) p9) (or p15 p10 (not p14)) (or p12 (not p15) p6) (or p11 (not p3) p10) (or p13 (not p14) (not p9)) (or (not p19) p17 (not p19)) (or p8 p17 (not p3)) (or p1 p14 (not p6)) (or (not p17) p0 p4))
)
(check-sat)
(get-model)
